c 3 - XORSAT
p cnf 30 120
-21 -24 -27 0
-21 24 27 0
21 -24 27 0
21 24 -27 0
8 13 14 0
-8 -13 14 0
-8 13 -14 0
8 -13 -14 0
-1 -19 -23 0
-1 19 23 0
1 -19 23 0
1 19 -23 0
-6 -12 -21 0
-6 12 21 0
6 -12 21 0
6 12 -21 0
11 16 25 0
-11 -16 25 0
-11 16 -25 0
11 -16 -25 0
2 8 20 0
-2 -8 20 0
-2 8 -20 0
2 -8 -20 0
1 4 18 0
-1 -4 18 0
-1 4 -18 0
1 -4 -18 0
-22 -29 -30 0
-22 29 30 0
22 -29 30 0
22 29 -30 0
-11 -12 -16 0
-11 12 16 0
11 -12 16 0
11 12 -16 0
5 17 26 0
-5 -17 26 0
-5 17 -26 0
5 -17 -26 0
15 21 22 0
-15 -21 22 0
-15 21 -22 0
15 -21 -22 0
-7 -18 -28 0
-7 18 28 0
7 -18 28 0
7 18 -28 0
-23 -24 -30 0
-23 24 30 0
23 -24 30 0
23 24 -30 0
2 3 9 0
-2 -3 9 0
-2 3 -9 0
2 -3 -9 0
-25 -26 -27 0
-25 26 27 0
25 -26 27 0
25 26 -27 0
-2 -9 -10 0
-2 9 10 0
2 -9 10 0
2 9 -10 0
-4 -9 -10 0
-4 9 10 0
4 -9 10 0
4 9 -10 0
11 17 28 0
-11 -17 28 0
-11 17 -28 0
11 -17 -28 0
-1 -18 -26 0
-1 18 26 0
1 -18 26 0
1 18 -26 0
8 14 25 0
-8 -14 25 0
-8 14 -25 0
8 -14 -25 0
-14 -19 -27 0
-14 19 27 0
14 -19 27 0
14 19 -27 0
-20 -23 -24 0
-20 23 24 0
20 -23 24 0
20 23 -24 0
-4 -7 -13 0
-4 7 13 0
4 -7 13 0
4 7 -13 0
-3 -6 -19 0
-3 6 19 0
3 -6 19 0
3 6 -19 0
3 6 29 0
-3 -6 29 0
-3 6 -29 0
3 -6 -29 0
13 15 22 0
-13 -15 22 0
-13 15 -22 0
13 -15 -22 0
-5 -7 -12 0
-5 7 12 0
5 -7 12 0
5 7 -12 0
-15 -16 -20 0
-15 16 20 0
15 -16 20 0
15 16 -20 0
29 30 28 0
-29 -30 28 0
-29 30 -28 0
29 -30 -28 0
5 10 17 0
-5 -10 17 0
-5 10 -17 0
5 -10 -17 0
